[2026-03-23T16:04:10.732Z] Pipeline "set_exp_3_exp_3_n027_c005_g003" → 2026_03_23_16_04_10_set_exp_3_exp_3_n027_c005_g003_max.sol
Set parameter WLSAccessID
Set parameter WLSSecret
Set parameter LicenseID to value 2792458
Set parameter LogFile to value "gurobi.log"
Using license file /root/gurobi.lic
Academic license 2792458 - for non-commercial use only - registered to an___@studenti.unipg.it

Gurobi Optimizer version 13.0.1 build v13.0.1rc0 (linux64 - "Ubuntu 24.04.4 LTS")
Copyright (c) 2026, Gurobi Optimization, LLC

Warning: Duplicate section found (read 'binary') - Is a variable name equal to an LP file format keyword?
Warning: Duplicate section found (read 'binary') - Is a variable name equal to an LP file format keyword?
Warning: Duplicate section found (read 'binary') - Is a variable name equal to an LP file format keyword?
Warning: Duplicate section found (read 'binary') - Is a variable name equal to an LP file format keyword?
Warning: Duplicate section found (read 'binary') - Is a variable name equal to an LP file format keyword?
Warning: Duplicate section found (read 'binary') - Is a variable name equal to an LP file format keyword?
Warning: Duplicate section found (read 'binary') - Is a variable name equal to an LP file format keyword?
Warning: Duplicate section found (read 'binary') - Is a variable name equal to an LP file format keyword?
Warning: Duplicate section found (read 'binary') - Is a variable name equal to an LP file format keyword?
Warning: Duplicate section found (read 'binary') - Is a variable name equal to an LP file format keyword?
Warning: Further warnings of this type will be omitted.
Read LP format model from file /root/bgw/data/uploads/2026_03_23_16_04_10_set_exp_3_exp_3_n027_c005_g003_max.lp
Reading time = 0.01 seconds
: 6434 rows, 499 columns, 19403 nonzeros

Using Gurobi shared library /opt/gurobi1301/linux64/lib/libgurobi.so.13.0.1

CPU model: AMD EPYC-Genoa Processor, instruction set [SSE2|AVX|AVX2|AVX512]
Thread count: 16 physical cores, 16 logical processors, using up to 16 threads

Academic license 2792458 - for non-commercial use only - registered to an___@studenti.unipg.it
Optimize a model with 6434 rows, 499 columns and 19403 nonzeros (Max)
Model fingerprint: 0x4dad2bed
Model has 5 linear objective coefficients
Variable types: 32 continuous, 467 integer (467 binary)
Coefficient statistics:
  Matrix range     [1e+00, 3e+01]
  Objective range  [1e+00, 1e+00]
  Bounds range     [1e+00, 1e+00]
  RHS range        [1e+00, 3e+01]

Found heuristic solution: objective 5.0000000
Presolve removed 541 rows and 120 columns
Presolve time: 0.04s
Presolved: 5893 rows, 379 columns, 17991 nonzeros
Variable types: 0 continuous, 379 integer (366 binary)
Found heuristic solution: objective 6.0000000

Root relaxation: objective 2.000000e+01, 280 iterations, 0.02 seconds (0.02 work units)

    Nodes    |    Current Node    |     Objective Bounds      |     Work
 Expl Unexpl |  Obj  Depth IntInf | Incumbent    BestBd   Gap | It/Node Time

     0     0   20.00000    0   31    6.00000   20.00000   233%     -    0s
H    0     0                      13.0000000   20.00000  53.8%     -    0s
H    0     0                      14.0000000   20.00000  42.9%     -    0s
     0     0   20.00000    0   33   14.00000   20.00000  42.9%     -    0s
H    0     0                      15.0000000   20.00000  33.3%     -    0s
     0     0   20.00000    0   36   15.00000   20.00000  33.3%     -    0s
     0     0   20.00000    0   29   15.00000   20.00000  33.3%     -    0s
     0     0   20.00000    0   30   15.00000   20.00000  33.3%     -    0s
     0     0   20.00000    0   20   15.00000   20.00000  33.3%     -    0s
     0     0   20.00000    0   24   15.00000   20.00000  33.3%     -    0s
     0     0   20.00000    0   19   15.00000   20.00000  33.3%     -    0s
     0     0   20.00000    0   27   15.00000   20.00000  33.3%     -    0s
     0     0   20.00000    0   19   15.00000   20.00000  33.3%     -    0s
     0     0   20.00000    0   22   15.00000   20.00000  33.3%     -    0s
     0     0   20.00000    0   22   15.00000   20.00000  33.3%     -    0s
     0     0   19.96000    0   32   15.00000   19.96000  33.1%     -    0s
     0     0   19.96000    0   24   15.00000   19.96000  33.1%     -    0s
     0     0   19.96000    0   24   15.00000   19.96000  33.1%     -    0s
     0     0   19.96000    0   24   15.00000   19.96000  33.1%     -    0s
     0     2   19.00000    0   24   15.00000   19.00000  26.7%     -    0s

Cutting planes:
  Cover: 2
  MIR: 3
  Inf proof: 22
  Zero half: 2
  Mod-K: 2

Explored 1226 nodes (174467 simplex iterations) in 2.38 seconds (2.97 work units)
Thread count was 16 (of 16 available processors)

Solution count 5: 15 14 13 ... 5

Optimal solution found (tolerance 1.00e-04)
Best objective 1.500000000000e+01, best bound 1.500000000000e+01, gap 0.0000%

Wrote result file '/root/bgw/data/results/2026_03_23_16_04_10_set_exp_3_exp_3_n027_c005_g003_max.sol'

